3 5 14 8 7 0 6 12 4 9 11 1 13 2 10
8 0 1 4 13 12 3 6 5 7 14 2 10 11 9
8 10 3 11 7 14 5 6 1 4 2 12 13 0 9
7 10 8 2 5 9 14 0 13 4 1 3 11 6 12
5 10 0 7 13 11 9 2 8 12 1 4 14 3 6
1 3 7 14 11 10 4 8 5 0 2 12 13 6 9
4 8 5 11 7 6 2 9 12 1 13 10 14 0 3
5 3 9 8 14 12 11 4 7 2 13 1 10 6 0
10 12 5 7 3 8 13 0 1 11 6 2 9 14 4
3 0 6 1 7 14 5 8 2 12 9 13 4 11 10
3 7 6 8 1 14 2 13 10 5 9 11 12 0 4
6 0 4 11 7 3 14 8 9 10 2 5 1 12 13
0 9 12 4 8 11 13 5 1 10 7 6 3 2 14
12 10 3 5 0 8 1 11 2 9 13 4 6 7 14
10 4 8 1 7 5 9 3 0 12 2 13 14 6 11